WARNING: for repeatability, setting FPU to use double precision
============================[ Problem Statistics ]=============================
|                                                                             |
|  Number of variables:       1509852                                         |
|  Number of clauses:        15272249                                         |
|  Parse time:                   2.45 s                                       |
|  Eliminated clauses:          66.09 Mb                                      |
|  Simplification time:         75.36 s                                       |
|                                                                             |
============================[ Search Statistics ]==============================
| Conflicts |          ORIGINAL         |          LEARNT          | Progress |
|           |    Vars  Clauses Literals |    Limit  Clauses Lit/Cl |          |
===============================================================================
|       100 |  566748  5271532 47052713 |  1932895      100     30 | 13.921 % |
|       250 |  566748  5271532 47052713 |  2126184      250    543 | 13.921 % |
|       475 |  566738  5271532 47052713 |  2338803      465   1157 | 13.921 % |
|       812 |  566689  5271532 47052713 |  2572683      760   1701 | 13.925 % |
|      1318 |  566557  5269596 47048772 |  2829951     1135   1732 | 13.933 % |
|      2077 |  565772  5269596 47048772 |  3112946     1771   1650 | 13.985 % |
===============================================================================
restarts              : 14
conflicts             : 2114           (25 /sec)
decisions             : 1354116        (0.00 % random) (15818 /sec)
propagations          : 67937557       (793596 /sec)
conflict literals     : 2931051        (25.91 % deleted)
Memory used           : 2495.00 MB
CPU time              : 85.6073 s

UNSATISFIABLE
MiniSat a returnat un cod de eroare 20 pentru fișierul 878bcc11e1e243680f7946bcf428f465-linked_list_swap_contents_safety_unwind45.cnf.
